c n orig vars 89
p cnf 130 185
116 0
90 -24 0
90 -23 0
90 -30 0
90 -29 0
90 -28 0
-90 24 23 30 29 28 0
91 -74 0
91 -73 0
91 -72 0
91 -71 0
91 -35 0
-91 74 73 72 71 35 0
92 -45 0
92 -46 0
92 -47 0
92 -48 0
92 -49 0
-92 45 46 47 48 49 0
-93 81 0
-93 82 0
-93 83 0
93 -81 -82 -83 0
94 -84 0
94 -85 0
94 -86 0
94 -95 0
94 -87 0
94 -92 0
-94 84 85 86 95 87 92 0
95 -88 0
95 -89 0
-95 88 89 0
96 -77 0
96 -76 0
96 -75 0
96 -90 0
-96 77 76 75 90 0
97 -94 0
97 -80 0
97 -93 0
-97 94 80 93 0
98 -124 0
98 -112 0
-98 124 112 0
99 -102 0
99 -12 0
99 -19 0
99 -3 0
99 -20 0
-99 102 12 19 3 20 0
-100 14 0
-100 11 0
100 -14 -11 0
101 -36 0
101 -35 0
101 -32 0
-101 36 35 32 0
102 -37 0
102 -39 0
102 -38 0
102 -34 0
102 -33 0
102 -101 0
-102 37 39 38 34 33 101 0
-103 31 0
-103 4 0
-103 37 0
-103 33 0
-103 3 0
103 -31 -4 -37 -33 -3 0
104 -119 0
104 -100 0
104 -13 0
-104 119 100 13 0
105 -109 0
105 -108 0
105 -130 0
105 -129 0
105 -128 0
105 -127 0
-105 109 108 130 129 128 127 0
-106 97 0
-106 121 0
106 -97 -121 0
-107 98 0
-107 99 0
107 -98 -99 0
-108 68 0
-108 69 0
108 -68 -69 0
-109 51 0
-109 50 0
109 -51 -50 0
116 -107 0
116 -106 0
116 -105 0
116 -104 0
116 -103 0
-116 107 106 105 104 103 0
-111 113 0
-111 110 0
-111 67 0
111 -113 -110 -67 0
112 -111 0
112 -114 0
-112 111 114 0
113 -115 0
113 -42 0
-113 115 42 0
-114 64 0
-114 65 0
114 -64 -65 0
115 -43 0
115 -118 0
115 -44 0
-115 43 118 44 0
110 -117 0
110 -27 0
-110 117 27 0
117 -40 0
117 -41 0
117 -120 0
117 -26 0
117 -25 0
-117 40 41 120 26 25 0
118 -45 0
118 -46 0
118 -47 0
118 -48 0
118 -49 0
-118 45 46 47 48 49 0
119 -18 0
119 -15 0
119 -16 0
-119 18 15 16 0
120 -24 0
120 -23 0
120 -30 0
120 -29 0
120 -28 0
-120 24 23 30 29 28 0
121 -10 0
121 -96 0
121 -9 0
121 -2 0
121 -1 0
-121 10 96 9 2 1 0
122 -126 0
122 -22 0
122 -21 0
122 -17 0
-122 126 22 21 17 0
123 -60 0
123 -91 0
123 -61 0
123 -66 0
-123 60 91 61 66 0
-124 123 0
-124 122 0
124 -123 -122 0
125 -70 0
125 -79 0
125 -78 0
125 -62 0
125 -63 0
-125 70 79 78 62 63 0
126 -6 0
126 -125 0
126 -5 0
126 -8 0
126 -7 0
-126 6 125 5 8 7 0
-127 55 0
-127 54 0
127 -55 -54 0
-128 53 0
-128 52 0
128 -53 -52 0
-129 59 0
-129 58 0
129 -59 -58 0
-130 57 0
-130 56 0
130 -57 -56 0
